39198 40089 
40104 39395 
40058 39412 
40311 39257 
39394 39950 
37876 40651 
39658 39796 
38623 40463 
38673 40311 
38876 40308 
38926 40156 
39218 39996 
38654 40371 
38487 40543 
38904 40196 
40843 38854 
41078 38557 
40918 38716 
40887 38808 
41428 38220 
40723 39000 
41153 38419 
41459 38128 
39952 39513 
41388 38242 
39877 39651 
39338 39960 
39591 39805 
41623 37945 
39032 40120 
41142 38535 
41036 38641 
40428 39231 
40635 39093 
40206 39294 
39678 39752 
40936 38656 
41231 38357 
40144 39345 
40499 39117 
40459 39139 
40096 39402 
39931 39597 
39709 39660 
40166 39300 
40016 39426 
40734 38867 
39480 39883 
39835 39655 
40002 39483 
39959 39485 
